(set-info :source |printed by MathSAT|)
(declare-fun x7 () Int)
(declare-fun call_swimingpool.ite20 () Int)
(declare-fun call_swimingpool.flby9 () Int)
(declare-fun call_First.First () Int)
(declare-fun call_swimingpool.ite17 () Int)
(declare-fun param_e3 () Bool)
(declare-fun x1 () Int)
(declare-fun call_swimingpool.ite11 () Int)
(declare-fun call_swimingpool.ite () Int)
(declare-fun call_swimingpool.ite26 () Int)
(declare-fun call_swimingpool.flby6 () Bool)
(declare-fun x5 () Int)
(declare-fun call_swimingpool.p1 () Int)
(declare-fun call_swimingpool.ite12 () Int)
(declare-fun _OK_ () Bool)
(declare-fun call_First.flby () Int)
(declare-fun call_swimingpool.flby10 () Int)
(declare-fun param_init_p2 () Int)
(declare-fun param_e1 () Bool)
(declare-fun param_e2 () Bool)
(declare-fun call_swimingpool.ite9 () Int)
(declare-fun call_excludes6.excludes () Bool)
(declare-fun x4 () Int)
(declare-fun call_Sofar.flby () Bool)
(declare-fun call_swimingpool.ite7 () Int)
(declare-fun call_swimingpool.flby11 () Int)
(declare-fun param_e5 () Bool)
(declare-fun call_swimingpool.ite25 () Int)
(declare-fun call_First3.First () Int)
(declare-fun call_swimingpool.ite28 () Int)
(declare-fun call_swimingpool.ite16 () Int)
(declare-fun call_swimingpool.x6 () Int)
(declare-fun call_swimingpool.ite5 () Int)
(declare-fun call_swimingpool.ite29 () Int)
(declare-fun call_swimingpool.flby8 () Int)
(declare-fun call_swimingpool.x7 () Int)
(declare-fun call_swimingpool.ite31 () Int)
(declare-fun call_swimingpool.ite22 () Int)
(declare-fun call_First4.flby () Int)
(declare-fun call_swimingpool.flby3 () Bool)
(declare-fun p1 () Int)
(declare-fun call_swimingpool.x1 () Int)
(declare-fun call_First3.flby () Int)
(declare-fun call_swimingpool.ite30 () Int)
(declare-fun call_swimingpool.ite2 () Int)
(declare-fun call_swimingpool.flby14 () Int)
(declare-fun call_swimingpool.g6 () Bool)
(declare-fun call_First2.flby () Int)
(declare-fun x2 () Int)
(declare-fun call_swimingpool.ite18 () Int)
(declare-fun call_swimingpool.ite10 () Int)
(declare-fun call_swimingpool.g5 () Bool)
(declare-fun call_swimingpool.x3 () Int)
(declare-fun call_swimingpool.flby5 () Bool)
(declare-fun call_swimingpool.g4 () Bool)
(declare-fun call_swimingpool.ite4 () Int)
(declare-fun call_swimingpool.g3 () Bool)
(declare-fun call_swimingpool.x4 () Int)
(declare-fun call_swimingpool.p2 () Int)
(declare-fun call_swimingpool.flby13 () Int)
(declare-fun x3 () Int)
(declare-fun call_swimingpool.x5 () Int)
(declare-fun call_First2.First () Int)
(declare-fun call_swimingpool.flby15 () Int)
(declare-fun call_swimingpool.g2 () Bool)
(declare-fun call_swimingpool.ite15 () Int)
(declare-fun call_swimingpool.ite19 () Int)
(declare-fun call_Sofar.Sofar () Bool)
(declare-fun call_swimingpool.ite21 () Int)
(declare-fun call_swimingpool.ite27 () Int)
(declare-fun call_swimingpool.g1 () Bool)
(declare-fun call_swimingpool.ite14 () Int)
(declare-fun p2 () Int)
(declare-fun param_e4 () Bool)
(declare-fun call_swimingpool.flby () Bool)
(declare-fun param_e6 () Bool)
(declare-fun call_swimingpool.ite13 () Int)
(declare-fun call_swimingpool.ite23 () Int)
(declare-fun call_swimingpool.flby4 () Bool)
(declare-fun call_swimingpool.flby2 () Bool)
(declare-fun call_swimingpool.ite32 () Int)
(declare-fun call_swimingpool.ite3 () Int)
(declare-fun param_init_p1 () Int)
(declare-fun call_swimingpool.flby7 () Int)
(declare-fun env () Bool)
(declare-fun call_swimingpool.x2 () Int)
(declare-fun call_swimingpool.ite6 () Int)
(declare-fun call_First4.First () Int)
(declare-fun call_swimingpool.ite24 () Int)
(declare-fun call_swimingpool.ite8 () Int)
(declare-fun x6 () Int)
(declare-fun call_swimingpool.flby12 () Int)
(define-fun .def_1138 () Bool (= call_First4.flby call_First4.First))
(define-fun .def_1136 () Bool (= call_First3.flby call_First3.First))
(define-fun .def_1134 () Bool (= call_First2.flby call_First2.First))
(define-fun .def_1132 () Bool (= call_First.flby call_First.First))
(define-fun .def_1130 () Bool (= call_Sofar.flby call_Sofar.Sofar))
(define-fun .def_978 () Bool (not param_e1))
(define-fun .def_830 () Bool (not param_e2))
(define-fun .def_1097 () Bool (and .def_830 .def_978))
(define-fun .def_824 () Bool (not param_e3))
(define-fun .def_1098 () Bool (and .def_824 .def_1097))
(define-fun .def_837 () Bool (not param_e4))
(define-fun .def_1099 () Bool (and .def_837 .def_1098))
(define-fun .def_844 () Bool (not param_e5))
(define-fun .def_1100 () Bool (and .def_844 .def_1099))
(define-fun .def_856 () Bool (not param_e6))
(define-fun .def_1121 () Bool (and .def_856 .def_1100))
(define-fun .def_1116 () Bool (and .def_830 param_e1))
(define-fun .def_1117 () Bool (and .def_824 .def_1116))
(define-fun .def_1118 () Bool (and .def_837 .def_1117))
(define-fun .def_1119 () Bool (and .def_844 .def_1118))
(define-fun .def_1120 () Bool (and .def_856 .def_1119))
(define-fun .def_1122 () Bool (or .def_1120 .def_1121))
(define-fun .def_1111 () Bool (and param_e2 .def_978))
(define-fun .def_1112 () Bool (and .def_824 .def_1111))
(define-fun .def_1113 () Bool (and .def_837 .def_1112))
(define-fun .def_1114 () Bool (and .def_844 .def_1113))
(define-fun .def_1115 () Bool (and .def_856 .def_1114))
(define-fun .def_1123 () Bool (or .def_1115 .def_1122))
(define-fun .def_1107 () Bool (and param_e3 .def_1097))
(define-fun .def_1108 () Bool (and .def_837 .def_1107))
(define-fun .def_1109 () Bool (and .def_844 .def_1108))
(define-fun .def_1110 () Bool (and .def_856 .def_1109))
(define-fun .def_1124 () Bool (or .def_1110 .def_1123))
(define-fun .def_1104 () Bool (and param_e4 .def_1098))
(define-fun .def_1105 () Bool (and .def_844 .def_1104))
(define-fun .def_1106 () Bool (and .def_856 .def_1105))
(define-fun .def_1125 () Bool (or .def_1106 .def_1124))
(define-fun .def_1102 () Bool (and param_e5 .def_1099))
(define-fun .def_1103 () Bool (and .def_856 .def_1102))
(define-fun .def_1126 () Bool (or .def_1103 .def_1125))
(define-fun .def_1101 () Bool (and param_e6 .def_1100))
(define-fun .def_1127 () Bool (or .def_1101 .def_1126))
(define-fun .def_1128 () Bool (= call_excludes6.excludes .def_1127))
(define-fun .def_1095 () Bool (= call_swimingpool.flby6 call_swimingpool.g6))
(define-fun .def_1092 () Bool (= call_swimingpool.flby5 call_swimingpool.g5))
(define-fun .def_1089 () Bool (= call_swimingpool.flby4 call_swimingpool.g4))
(define-fun .def_1086 () Bool (= call_swimingpool.flby3 call_swimingpool.g3))
(define-fun .def_1083 () Bool (= call_swimingpool.flby2 call_swimingpool.g2))
(define-fun .def_1080 () Bool (= call_swimingpool.flby call_swimingpool.g1))
(define-fun .def_1077 () Bool (= call_swimingpool.p2 call_swimingpool.flby15))
(define-fun .def_1075 () Bool (= call_swimingpool.p1 call_swimingpool.flby14))
(define-fun .def_1073 () Bool (= call_swimingpool.flby13 call_swimingpool.x7))
(define-fun .def_1071 () Bool (= call_swimingpool.flby12 call_swimingpool.x6))
(define-fun .def_1069 () Bool (= call_swimingpool.flby11 call_swimingpool.x5))
(define-fun .def_1067 () Bool (= call_swimingpool.flby10 call_swimingpool.x4))
(define-fun .def_1065 () Bool (= call_swimingpool.flby9 call_swimingpool.x3))
(define-fun .def_1063 () Bool (= call_swimingpool.flby8 call_swimingpool.x2))
(define-fun .def_1061 () Bool (= call_swimingpool.flby7 call_swimingpool.x1))
(define-fun .def_1059 () Bool (= x2 call_swimingpool.x2))
(define-fun .def_1055 () Bool (= x1 call_swimingpool.x1))
(define-fun .def_1048 () Bool (<= 7 x5))
(define-fun .def_1049 () Bool (not .def_1048))
(define-fun .def_1047 () Bool (not env))
(define-fun .def_1050 () Bool (or .def_1047 .def_1049))
(define-fun .def_1051 () Bool (= _OK_ .def_1050))
(define-fun .def_1042 () Bool (= call_swimingpool.ite20 call_swimingpool.ite17))
(define-fun .def_1043 () Bool (or .def_844 .def_1042))
(define-fun .def_1039 () Bool (= call_swimingpool.ite19 call_swimingpool.ite20))
(define-fun .def_1040 () Bool (or param_e5 .def_1039))
(define-fun .def_1044 () Bool (and .def_1040 .def_1043))
(define-fun .def_1034 () Bool (= call_swimingpool.ite25 call_swimingpool.ite26))
(define-fun .def_1035 () Bool (or param_e4 .def_1034))
(define-fun .def_1031 () Bool (= call_swimingpool.ite26 call_swimingpool.ite23))
(define-fun .def_1032 () Bool (or .def_837 .def_1031))
(define-fun .def_1027 () Bool (= call_swimingpool.ite16 call_swimingpool.ite13))
(define-fun .def_1028 () Bool (or .def_837 .def_1027))
(define-fun .def_1024 () Bool (= call_swimingpool.ite15 call_swimingpool.ite16))
(define-fun .def_1025 () Bool (or param_e4 .def_1024))
(define-fun .def_1029 () Bool (and .def_1025 .def_1028))
(define-fun .def_1033 () Bool (and .def_1029 .def_1032))
(define-fun .def_1036 () Bool (and .def_1033 .def_1035))
(define-fun .def_1019 () Bool (= call_swimingpool.ite27 call_swimingpool.ite26))
(define-fun .def_1020 () Bool (or param_e3 .def_1019))
(define-fun .def_1015 () Bool (= call_swimingpool.ite27 call_swimingpool.ite22))
(define-fun .def_1016 () Bool (or .def_824 .def_1015))
(define-fun .def_1011 () Bool (= call_swimingpool.ite12 call_swimingpool.ite9))
(define-fun .def_1012 () Bool (or .def_824 .def_1011))
(define-fun .def_1008 () Bool (= call_swimingpool.ite11 call_swimingpool.ite12))
(define-fun .def_1009 () Bool (or param_e3 .def_1008))
(define-fun .def_1013 () Bool (and .def_1009 .def_1012))
(define-fun .def_1017 () Bool (and .def_1013 .def_1016))
(define-fun .def_1021 () Bool (and .def_1017 .def_1020))
(define-fun .def_1003 () Bool (= call_swimingpool.ite31 call_swimingpool.ite32))
(define-fun .def_1004 () Bool (or param_e2 .def_1003))
(define-fun .def_1000 () Bool (= call_swimingpool.ite29 call_swimingpool.ite32))
(define-fun .def_1001 () Bool (or .def_830 .def_1000))
(define-fun .def_995 () Bool (= call_swimingpool.ite8 call_swimingpool.ite5))
(define-fun .def_996 () Bool (or .def_830 .def_995))
(define-fun .def_992 () Bool (= call_swimingpool.ite7 call_swimingpool.ite8))
(define-fun .def_993 () Bool (or param_e2 .def_992))
(define-fun .def_997 () Bool (and .def_993 .def_996))
(define-fun .def_1002 () Bool (and .def_997 .def_1001))
(define-fun .def_1005 () Bool (and .def_1002 .def_1004))
(define-fun .def_987 () Bool (= call_swimingpool.ite28 call_swimingpool.ite27))
(define-fun .def_988 () Bool (or param_e1 .def_987))
(define-fun .def_983 () Bool (= call_swimingpool.ite21 call_swimingpool.ite28))
(define-fun .def_984 () Bool (or .def_978 .def_983))
(define-fun .def_977 () Bool (= call_swimingpool.ite4 call_swimingpool.ite))
(define-fun .def_979 () Bool (or .def_977 .def_978))
(define-fun .def_973 () Bool (= call_swimingpool.ite3 call_swimingpool.ite4))
(define-fun .def_975 () Bool (or .def_973 param_e1))
(define-fun .def_980 () Bool (and .def_975 .def_979))
(define-fun .def_985 () Bool (and .def_980 .def_984))
(define-fun .def_989 () Bool (and .def_985 .def_988))
(define-fun .def_966 () Bool (<= 1000 call_First4.First))
(define-fun .def_967 () Bool (not .def_966))
(define-fun .def_962 () Bool (<= 1000 call_First3.First))
(define-fun .def_963 () Bool (not .def_962))
(define-fun .def_959 () Bool (<= 0 call_First2.First))
(define-fun .def_955 () Bool (<= 0 call_First.First))
(define-fun .def_957 () Bool (and .def_955 call_Sofar.Sofar))
(define-fun .def_960 () Bool (and .def_957 .def_959))
(define-fun .def_964 () Bool (and .def_960 .def_963))
(define-fun .def_968 () Bool (and .def_964 .def_967))
(define-fun .def_970 () Bool (= .def_968 env))
(define-fun .def_952 () Bool (= call_swimingpool.p2 p2))
(define-fun .def_949 () Bool (= call_swimingpool.p1 p1))
(define-fun .def_946 () Bool (= x7 call_swimingpool.x7))
(define-fun .def_942 () Bool (= x6 call_swimingpool.x6))
(define-fun .def_938 () Bool (= x5 call_swimingpool.x5))
(define-fun .def_934 () Bool (= x4 call_swimingpool.x4))
(define-fun .def_931 () Bool (= x3 call_swimingpool.x3))
(define-fun .def_935 () Bool (and .def_931 .def_934))
(define-fun .def_939 () Bool (and .def_935 .def_938))
(define-fun .def_943 () Bool (and .def_939 .def_942))
(define-fun .def_947 () Bool (and .def_943 .def_946))
(define-fun .def_950 () Bool (and .def_947 .def_949))
(define-fun .def_953 () Bool (and .def_950 .def_952))
(define-fun .def_971 () Bool (and .def_953 .def_970))
(define-fun .def_990 () Bool (and .def_971 .def_989))
(define-fun .def_1006 () Bool (and .def_990 .def_1005))
(define-fun .def_1022 () Bool (and .def_1006 .def_1021))
(define-fun .def_1037 () Bool (and .def_1022 .def_1036))
(define-fun .def_1045 () Bool (and .def_1037 .def_1044))
(define-fun .def_1052 () Bool (and .def_1045 .def_1051))
(define-fun .def_1056 () Bool (and .def_1052 .def_1055))
(define-fun .def_1060 () Bool (and .def_1056 .def_1059))
(define-fun .def_1062 () Bool (and .def_1060 .def_1061))
(define-fun .def_1064 () Bool (and .def_1062 .def_1063))
(define-fun .def_1066 () Bool (and .def_1064 .def_1065))
(define-fun .def_1068 () Bool (and .def_1066 .def_1067))
(define-fun .def_1070 () Bool (and .def_1068 .def_1069))
(define-fun .def_1072 () Bool (and .def_1070 .def_1071))
(define-fun .def_1074 () Bool (and .def_1072 .def_1073))
(define-fun .def_1076 () Bool (and .def_1074 .def_1075))
(define-fun .def_1078 () Bool (and .def_1076 .def_1077))
(define-fun .def_1081 () Bool (and .def_1078 .def_1080))
(define-fun .def_1084 () Bool (and .def_1081 .def_1083))
(define-fun .def_1087 () Bool (and .def_1084 .def_1086))
(define-fun .def_1090 () Bool (and .def_1087 .def_1089))
(define-fun .def_1093 () Bool (and .def_1090 .def_1092))
(define-fun .def_1096 () Bool (and .def_1093 .def_1095))
(define-fun .def_1129 () Bool (and .def_1096 .def_1128))
(define-fun .def_1131 () Bool (and .def_1129 .def_1130))
(define-fun .def_1133 () Bool (and .def_1131 .def_1132))
(define-fun .def_1135 () Bool (and .def_1133 .def_1134))
(define-fun .def_1137 () Bool (and .def_1135 .def_1136))
(define-fun .def_1139 () Bool (and .def_1137 .def_1138))
(define-fun .def_927 () Bool (= param_init_p2 call_First4.flby))
(define-fun .def_924 () Bool (= param_init_p1 call_First3.flby))
(define-fun .def_921 () Bool (= param_init_p2 call_First2.flby))
(define-fun .def_918 () Bool (= param_init_p1 call_First.flby))
(define-fun .def_915 () Bool (= call_excludes6.excludes call_Sofar.flby))
(define-fun .def_911 () Bool (= param_init_p2 call_swimingpool.flby15))
(define-fun .def_907 () Bool (= param_init_p1 call_swimingpool.flby14))
(define-fun .def_903 () Bool (= call_swimingpool.flby13 call_swimingpool.p2))
(define-fun .def_899 () Bool (= call_swimingpool.flby12 call_swimingpool.p1))
(define-fun .def_895 () Bool (= call_swimingpool.flby11 0))
(define-fun .def_892 () Bool (= call_swimingpool.flby10 0))
(define-fun .def_889 () Bool (= call_swimingpool.flby9 0))
(define-fun .def_886 () Bool (= call_swimingpool.flby8 0))
(define-fun .def_883 () Bool (= call_swimingpool.flby7 0))
(define-fun .def_880 () Bool (not call_swimingpool.flby6))
(define-fun .def_877 () Bool (not call_swimingpool.flby5))
(define-fun .def_874 () Bool (not call_swimingpool.flby4))
(define-fun .def_871 () Bool (not call_swimingpool.flby3))
(define-fun .def_868 () Bool (not call_swimingpool.flby2))
(define-fun .def_865 () Bool (not call_swimingpool.flby))
(define-fun .def_860 () Bool (= call_swimingpool.ite18 call_swimingpool.ite19))
(define-fun .def_861 () Bool (or .def_856 .def_860))
(define-fun .def_854 () Bool (= call_swimingpool.ite24 call_swimingpool.ite25))
(define-fun .def_857 () Bool (or .def_854 .def_856))
(define-fun .def_862 () Bool (and .def_857 .def_861))
(define-fun .def_848 () Bool (= call_swimingpool.ite14 call_swimingpool.ite15))
(define-fun .def_849 () Bool (or .def_844 .def_848))
(define-fun .def_842 () Bool (= call_swimingpool.ite30 call_swimingpool.ite31))
(define-fun .def_845 () Bool (or .def_842 .def_844))
(define-fun .def_850 () Bool (and .def_845 .def_849))
(define-fun .def_835 () Bool (= call_swimingpool.ite10 call_swimingpool.ite11))
(define-fun .def_838 () Bool (or .def_835 .def_837))
(define-fun .def_828 () Bool (= call_swimingpool.ite2 call_swimingpool.ite3))
(define-fun .def_831 () Bool (or .def_828 .def_830))
(define-fun .def_822 () Bool (= call_swimingpool.ite6 call_swimingpool.ite7))
(define-fun .def_825 () Bool (or .def_822 .def_824))
(define-fun .def_832 () Bool (and .def_825 .def_831))
(define-fun .def_839 () Bool (and .def_832 .def_838))
(define-fun .def_851 () Bool (and .def_839 .def_850))
(define-fun .def_863 () Bool (and .def_851 .def_862))
(define-fun .def_866 () Bool (and .def_863 .def_865))
(define-fun .def_869 () Bool (and .def_866 .def_868))
(define-fun .def_872 () Bool (and .def_869 .def_871))
(define-fun .def_875 () Bool (and .def_872 .def_874))
(define-fun .def_878 () Bool (and .def_875 .def_877))
(define-fun .def_881 () Bool (and .def_878 .def_880))
(define-fun .def_884 () Bool (and .def_881 .def_883))
(define-fun .def_887 () Bool (and .def_884 .def_886))
(define-fun .def_890 () Bool (and .def_887 .def_889))
(define-fun .def_893 () Bool (and .def_890 .def_892))
(define-fun .def_896 () Bool (and .def_893 .def_895))
(define-fun .def_900 () Bool (and .def_896 .def_899))
(define-fun .def_904 () Bool (and .def_900 .def_903))
(define-fun .def_908 () Bool (and .def_904 .def_907))
(define-fun .def_912 () Bool (and .def_908 .def_911))
(define-fun .def_916 () Bool (and .def_912 .def_915))
(define-fun .def_919 () Bool (and .def_916 .def_918))
(define-fun .def_922 () Bool (and .def_919 .def_921))
(define-fun .def_925 () Bool (and .def_922 .def_924))
(define-fun .def_928 () Bool (and .def_925 .def_927))
(define-fun .def_1140 () Bool (and .def_928 .def_1139))
(assert .def_1140)
